outputs/case_297.model.txt
capital_adequacy_ratio = 40
net_worth_ratio_prev = 0
net_worth = -1000000
net_worth_ratio = 0
internal_control_executed = True
internal_handling_established = True
penalty = False
internal_control_established = True
internal_handling_executed = True
capital_level = 4
internal_handling_ok = True
internal_control_ok = True